CB
   1.00000000000000     
     6.1686167624538344    0.0000000000000000    1.7777280597624723
     0.0000000000000000    2.8346320000486429    0.0000000000000000
     0.0125976760739100    0.0000000000000000    6.1094225228699139
 C   B      
   3   9   3
Direct
  0.5814382750513790  0.5000000000000000  0.0515678548724811
  0.3332182920331369  0.5000000000000000  0.8257306082239149
  0.5621806285690346  0.0000000000000000  0.6477479475903659
  0.8385603557752213  0.5000000000000000  0.7355397889348555
  0.7836937628002594  0.5000000000000000  0.2867003849812974
  0.0216089204862202  0.5000000000000000  0.4605045899649188
  0.9018984630109647  0.5000000000000000  0.9924641868798064
  0.2894436856974154  0.5000000000000000  0.2942472561906730
  0.0765425083402316  0.5000000000000000  0.1433298825283500
  0.4583322822786651  0.0000000000000000  0.2799142002384052
  0.0765070980247182  0.0000000000000000  0.9521083097374088
  0.2119262157398887  0.0000000000000000  0.4930823553170007
  0.6034182160138498  0.5000000000000000  0.7779284924099139
  0.2642315045140809  0.0000000000000000  0.7248679756707788
  0.6614097916649380  0.0000000000000000  0.3743061664598202

