55
1.0000
    3.228059     1.761184     3.139913
   -0.209081     2.992891    -0.036356
   -1.343987    -1.541881     4.160567
 C   F      
   3    2 
Direct
    0.872317     0.905549     0.533473
    0.194279     0.389531     0.823945
    0.550156     0.421830     0.242932
    0.195438     0.085898     0.216795
    0.548779     0.725237     0.849600
