CO
   1.00000000000000     
     0.0000000000000000    1.8121330882443534    1.8121330882443523
     1.8121330882443523    0.0000000000000000    1.8121330882443534
     1.8121330882443523    1.8121330882443534    0.0000000000000000
 C   O      
   1   1
Direct
  0.0000000000000000  0.0000000000000000  0.0000000000000000
  0.2500000000000000  0.2500000000000000  0.2500000000000000
 
