OC
   1.00000000000000     
     2.5220535726153264    0.0000000000000000    0.0000000000000000
     0.0000000000000000    2.5220535726153264    0.0000000000000000
     0.0000000000000000    0.0000000000000000    7.5603800275344959
 O   C      
   4   4
Direct
  0.5000000000000000  0.5000000000000000  0.5000000000000000
  0.0000000000000000  0.0000000000000000  0.0000000000000000
  0.5000000000000000  0.5000000000000000  0.2412780592515271
  0.5000000000000000  0.5000000000000000  0.7587219407484729
  0.0000000000000000  0.5000000000000000  0.6292453468472952
  0.0000000000000000  0.5000000000000000  0.1208942788754384
  0.5000000000000000  0.0000000000000000  0.3707546531527048
  0.5000000000000000  0.0000000000000000  0.8791057211245615

