SYSTEM = unitcell
PREC = Normal
ENCUT = 1e-5
EDIFFG = 2e-5
IBRION = 2
ISIF = 3
PSTRESS = -300
NSW = 100
ISMEAR = 0
SIGMA = 0.20
POTIM = 0.10
LCHARG = FALSE
LWAVE = FALSE
KSPACING = 0.12
KGAMMA = .TRUE.
