BC
   1.00000000000000     
     4.8955811887829856    0.0000000000000000    0.0000000000000000
     0.0000000000000000    2.5905152656406369    0.0000000000000000
     0.0000000000000000    0.0000000000000000    4.2858433829067781
 B   C      
   4   4
Direct
  0.1601739294629121  0.7500000000000000  0.4094088797031450
  0.3398260705370880  0.2500000000000000  0.9094088797031451
  0.8398260705370880  0.2500000000000000  0.5905911202968549
  0.6601739294629120  0.7500000000000000  0.0905911202968550
  0.8230586469239051  0.7500000000000000  0.3901329756043450
  0.6769413530760949  0.2500000000000000  0.8901329756043379
  0.1769413530760950  0.2500000000000000  0.6098670243956621
  0.3230586469239051  0.7500000000000000  0.1098670243956550

